c File: instances/10_0.50_3.col
c
c Description: Random graph of size 10 vertices and P(0.49999999999999994) of edges between any two vertices.
p col 10 45
e 1 2
e 1 3
e 1 7
e 1 8
e 1 10
e 2 3
e 2 5
e 2 6
e 2 7
e 2 9
e 2 10
e 3 5
e 3 6
e 3 7
e 3 8
e 3 9
e 3 10
e 4 5
e 4 9
e 5 6
e 5 7
e 5 8
e 6 9
e 7 8
e 7 9
e 8 9
e 8 10
e 9 10